n=20;
demand=2;
horizon=20;
est=[0,2,0,6,16,10,9,8,2,0,2,0,7,18,2,1,10,5,17,8];
processing_time=[8,10,8,13,4,7,6,12,16,12,1,16,9,1,5,12,10,15,1,8];
lct=[18,19,16,20,20,17,16,20,20,18,8,16,17,20,15,14,20,20,18,16];
